1 1
2 2
3 1
4 1
5 2
6 2
7 1
8 1
9 1
10 2
11 2
12 2
13 1
14 2
15 2
16 1
17 2
18 1
19 2
20 1
21 2
22 2
23 1
24 1
25 2
26 1
27 1
28 2
29 1
30 2
31 2
32 1
33 2
34 2
35 1
36 1
37 2
38 2
39 2
40 2
41 2
42 2
43 2
44 1
45 2
46 2
47 1
48 1
49 1
50 2
51 1
52 2
53 2
54 1
55 2
56 1
57 2
58 2
59 2
60 1
61 2
62 1
63 2
64 1
65 1
66 1
67 2
68 2
69 1
70 2
71 1
72 2
73 2
74 2
75 1
76 1
77 1
78 1
79 2
80 1
81 1
82 1
83 2
84 2
85 2
86 2
87 2
88 2
89 1
90 2
91 1
92 2
93 1
94 2
95 1
96 1
97 2
98 1
99 1
100 1
101 1
102 2
103 1
104 2
105 2
106 1
107 2
108 2
109 1
110 1
111 2
112 1
113 2
114 2
115 2
116 1
117 2
118 1
119 1
120 1
121 2
122 1
123 2
124 2
125 2
126 2
127 2
128 1
129 1
130 2
131 1
132 2
133 1
134 1
135 2
136 1
137 1
138 2
139 1
140 2
141 1
142 2
143 2
144 1
145 2
146 2
147 1
148 2
149 2
150 2
151 2
152 1
153 1
154 2
155 1
156 2
157 1
158 1
159 2
160 2
161 2
162 1
163 2
164 1
165 2
166 1
167 2
168 2
169 1
170 1
171 2
172 1
173 1
174 1
175 1
176 1
177 2
178 2
179 2
180 1
181 1
182 1
183 1
184 1
185 1
186 1
187 2
188 1
189 2
190 2
191 2
192 1
193 2
194 2
195 2
196 1
197 1
198 2
199 2
200 1
201 2
202 2
203 2
204 1
205 1
206 2
207 2
208 1
209 1
210 2
211 2
212 1
213 1
214 1
215 2
216 1
217 1
218 1
219 2
220 1
221 1
222 2
223 1
224 1
225 2
226 1
227 1
228 2
229 1
230 2
231 1
232 1
233 1
234 1
235 1
236 2
237 1
238 1
239 1
240 2
241 1
242 1
243 1
244 2
245 1
246 1
247 2
248 1
249 1
250 1
251 2
252 2
253 1
254 2
255 2
256 2
257 2
258 2
259 2
260 1
261 1
262 1
263 2
264 1
265 1
266 1
267 1
268 2
269 1
270 2
271 1
272 1
273 1
274 1
275 1
276 2
277 1
278 1
279 2
280 2
281 2
282 2
283 1
284 1
285 2
286 2
287 2
288 2
289 1
290 2
291 2
292 2
293 2
294 2
295 1
296 1
297 2
298 2
299 1
300 2
301 1
302 2
303 2
304 2
305 2
306 2
307 1
308 1
309 1
310 2
311 2
312 1
313 1
314 1
315 1
316 2
317 1
318 1
319 2
320 2
321 2
322 1
323 2
324 1
325 1
326 2
327 1
328 1
329 1
330 2
331 1
332 2
333 2
334 1
335 2
336 2
337 2
338 1
339 1
340 1
341 2
342 1
343 1
344 2
345 2
346 2
347 1
348 1
349 2
350 1
351 2
352 2
353 1
354 2
355 1
356 2
357 2
358 2
359 2
360 1
361 2
362 2
363 1
364 1
365 2
366 2
367 1
368 1
369 2
370 2
371 1
372 1
373 2
374 2
375 1
376 1
377 2
378 1
379 2
380 1
381 2
382 2
383 2
384 1
385 1
386 2
387 1
388 1
389 2
390 1
391 1
392 1
393 1
394 2
395 2
396 1
397 1
398 1
399 2
400 1
401 2
402 1
403 2
404 2
405 1
406 1
407 1
408 1
409 2
410 1
411 2
412 2
413 2
414 1
415 1
416 1
417 1
418 2
419 1
420 2
421 1
422 2
423 2
424 1
425 2
426 1
427 2
428 2
429 1
430 2
431 1
432 1
433 1
434 2
435 2
436 2
437 1
438 1
439 1
440 1
441 1
442 2
443 1
444 1
445 2
446 1
447 1
448 1
449 1
450 2
451 1
452 2
453 1
454 1
455 1
456 2
457 1
458 1
459 2
460 1
461 2
462 1
463 1
464 1
465 1
466 2
467 2
468 2
469 2
470 2
471 1
472 2
473 2
474 1
475 1
476 2
477 2
478 1
479 2
480 2
481 2
482 2
483 2
484 1
485 1
486 2
487 1
488 2
489 2
490 1
491 1
492 1
493 1
494 1
495 2
496 1
497 2
498 1
499 2
500 2
501 1
502 2
503 2
504 1
505 2
506 2
507 2
508 2
509 1
510 2
511 1
512 1
513 1
514 1
515 1
516 2
517 1
518 1
519 2
520 2
521 2
522 2
523 2
524 2
525 2
526 2
527 2
528 2
529 2
530 1
531 1
532 1
533 2
534 2
535 1
536 2
537 2
538 1
539 2
540 1
541 1
542 2
543 2
544 1
545 2
546 2
547 1
548 1
549 2
550 1
551 1
552 2
553 1
554 1
555 1
556 2
557 2
558 2
559 2
560 2
561 1
562 2
563 1
564 1
565 1
566 2
567 1
568 1
569 2
570 1
571 1
572 2
573 1
574 2
575 1
576 1
577 2
578 2
579 2
580 2
581 2
582 2
583 1
584 1
585 1
586 1
587 1
588 1
589 1
590 1
591 1
592 1
593 1
594 2
595 1
596 1
597 1
598 1
599 2
600 2
601 2
602 1
603 2
604 1
605 2
606 2
607 2
608 2
609 2
610 2
611 1
612 2
613 1
614 2
615 1
616 1
617 1
618 2
619 2
620 1
621 2
622 1
623 1
624 2
625 2
626 2
627 2
628 2
629 2
630 1
631 2
632 2
633 1
634 1
635 1
636 1
637 2
638 1
639 1
640 2
641 2
642 1
643 1
644 1
645 2
646 2
647 2
648 2
649 2
650 2
651 1
652 2
653 1
654 2
655 1
656 1
657 1
658 1
659 2
660 1
661 1
662 2
663 1
664 2
665 2
666 2
667 1
668 1
669 1
670 2
671 1
672 1
673 2
674 1
675 2
676 2
677 1
678 2
679 1
680 1
681 1
682 1
683 2
684 2
685 2
686 2
687 2
688 2
689 1
690 2
691 1
692 2
693 1
694 1
695 1
696 2
697 1
698 1
699 2
700 2
701 2
702 2
703 2
704 1
705 1
706 2
707 1
708 1
709 1
710 2
711 1
712 1
713 2
714 2
715 1
716 2
717 1
718 1
719 1
720 2
721 2
722 1
723 1
724 2
725 2
726 2
727 2
728 1
729 1
730 2
731 2
732 2
733 1
734 1
735 1
736 1
737 2
738 2
739 1
740 1
741 1
742 1
743 2
744 2
745 1
746 1
747 2
748 2
749 2
750 2
751 2
752 1
753 1
754 2
755 2
756 1
757 1
758 2
759 1
760 2
761 1
762 2
763 2
764 2
765 1
766 1
767 2
768 2
769 1
770 2
771 1
772 1
773 1
774 2
775 2
776 2
777 1
778 2
779 1
780 2
781 2
782 2
783 2
784 1
785 1
786 2
787 1
788 2
789 1
790 2
791 2
792 2
793 1
794 2
795 1
796 1
797 2
798 2
799 2
800 2
801 1
802 1
803 2
804 2
805 1
806 2
807 2
808 2
809 1
810 1
811 2
812 2
813 2
814 2
815 1
816 1
817 2
818 2
819 1
820 2
821 2
822 1
823 1
824 2
825 1
826 2
827 2
828 1
829 2
830 1
831 1
832 2
833 1
834 2
835 1
836 2
837 1
838 1
839 1
840 2
841 1
842 1
843 2
844 2
845 2
846 2
847 1
848 2
849 2
850 1
851 2
852 1
853 1
854 1
855 1
856 2
857 2
858 1
859 1
860 2
861 1
862 1
863 1
864 1
865 2
866 1
867 2
868 1
869 2
870 2
871 2
872 1
873 1
874 2
875 1
876 2
877 2
878 1
879 1
880 1
881 1
882 1
883 2
884 1
885 1
886 2
887 1
888 1
889 1
890 2
891 1
892 1
893 2
894 1
895 2
896 1
897 1
898 2
899 1
900 1
901 1
902 1
903 2
904 1
905 1
906 2
907 2
908 1
909 2
910 2
911 1
912 1
913 1
914 2
915 1
916 1
917 2
918 1
919 2
920 2
921 1
922 1
923 2
924 1
925 1
926 2
927 1
928 2
929 1
930 1
931 1
932 2
933 2
934 2
935 2
936 1
937 2
938 2
939 2
940 1
941 2
942 1
943 1
944 1
945 2
946 1
947 2
948 2
949 2
950 1
951 1
952 1
953 2
954 2
955 1
956 2
957 2
958 1
959 1
960 2
961 2
962 1
963 2
964 1
965 2
966 2
967 1
968 2
969 1
970 1
971 1
972 1
973 2
974 2
975 2
976 2
977 2
978 2
979 2
980 2
981 1
982 2
983 2
984 2
985 2
986 2
987 2
988 2
989 2
990 2
991 1
992 1
993 2
994 2
995 2
996 2
997 1
998 2
999 2
1000 2
1001 2
1002 2
1003 1
1004 1
1005 1
1006 2
1007 1
1008 1
1009 2
1010 2
1011 2
1012 2
1013 1
1014 2
1015 2
1016 2
1017 1
1018 2
1019 2
1020 2
1021 1
1022 1
1023 2
1024 1
1025 2
1026 2
1027 2
1028 1
1029 2
1030 1
1031 2
1032 2
1033 1
1034 2
1035 2
1036 2
1037 1
1038 2
1039 1
1040 1
1041 1
1042 2
1043 1
1044 2
1045 1
1046 2
1047 1
1048 1
1049 1
1050 2
1051 1
1052 2
1053 1
1054 1
1055 2
1056 1
1057 1
1058 2
1059 1
1060 2
1061 1
1062 2
1063 2
1064 2
1065 1
1066 2
1067 2
1068 1
1069 2
1070 1
1071 1
1072 2
1073 1
1074 1
1075 1
1076 2
1077 2
1078 2
1079 2
1080 2
1081 2
1082 1
1083 1
1084 2
1085 2
1086 2
1087 2
1088 2
1089 1
1090 1
1091 2
1092 2
1093 1
1094 1
1095 1
1096 1
1097 1
1098 1
1099 2
1100 2
1101 2
1102 1
1103 1
1104 1
1105 1
1106 2
1107 1
1108 2
1109 1
1110 1
1111 2
1112 2
1113 2
1114 1
1115 1
1116 1
1117 2
1118 2
1119 2
1120 2
1121 2
1122 2
1123 2
1124 2
1125 2
1126 1
1127 2
1128 2
1129 2
1130 1
1131 1
1132 2
1133 2
1134 2
1135 2
1136 2
1137 1
1138 2
1139 1
1140 2
1141 1
1142 2
1143 1
1144 2
1145 1
1146 1
1147 2
1148 1
1149 1
1150 2
1151 2
1152 1
1153 1
1154 1
1155 1
1156 2
1157 1
1158 1
1159 1
1160 1
1161 2
1162 2
1163 2
1164 1
1165 1
1166 1
1167 2
1168 1
1169 2
1170 2
1171 2
1172 2
1173 2
1174 1
1175 2
1176 2
1177 2
1178 1
1179 1
1180 1
1181 2
1182 2
1183 1
1184 2
1185 1
1186 2
1187 2
1188 1
1189 2
1190 2
1191 1
1192 1
1193 2
1194 2
1195 1
1196 1
1197 2
1198 1
1199 1
1200 1
1201 1
1202 1
1203 1
1204 1
1205 2
1206 2
1207 1
1208 2
1209 1
1210 2
1211 2
1212 1
1213 1
1214 2
1215 1
1216 2
1217 2
1218 2
1219 1
1220 2
1221 1
1222 1
1223 2
1224 2
1225 1
1226 2
1227 2
1228 2
1229 2
1230 2
1231 1
1232 1
1233 1
1234 2
1235 1
1236 1
1237 2
1238 1
1239 2
1240 1
1241 2
1242 1
1243 2
1244 1
1245 2
1246 1
1247 2
1248 1
1249 2
1250 1
1251 1
1252 1
1253 1
1254 1
1255 1
1256 2
1257 2
1258 1
1259 2
1260 1
1261 1
1262 2
1263 1
1264 2
1265 1
1266 1
1267 2
1268 2
1269 2
1270 2
1271 2
1272 2
1273 1
1274 2
1275 2
1276 1
1277 2
1278 2
1279 1
1280 1
1281 1
1282 2
1283 2
1284 1
1285 2
1286 1
1287 1
1288 1
1289 2
1290 2
1291 1
1292 2
1293 1
1294 1
1295 2
1296 2
1297 1
1298 2
1299 2
1300 2
1301 1
1302 2
1303 1
1304 1
1305 2
1306 1
1307 1
1308 1
1309 2
1310 2
1311 2
1312 2
1313 2
1314 1
1315 2
1316 2
1317 1
1318 1
1319 2
1320 2
1321 2
1322 2
1323 2
1324 1
1325 1
1326 1
1327 1
1328 2
1329 1
1330 1
1331 1
1332 2
1333 2
1334 1
1335 2
1336 1
1337 1
1338 1
1339 1
1340 2
1341 1
1342 2
1343 1
1344 2
1345 2
1346 2
1347 2
1348 1
1349 2
1350 2
1351 2
1352 1
1353 1
1354 1
1355 1
1356 1
1357 1
1358 1
1359 2
1360 1
1361 1
1362 1
1363 1
1364 1
1365 1
1366 2
1367 2
1368 1
1369 1
1370 2
1371 2
1372 1
1373 1
1374 2
1375 2
1376 2
1377 2
1378 2
1379 2
1380 1
1381 2
1382 2
1383 2
1384 2
1385 2
1386 1
1387 1
1388 2
1389 1
1390 2
1391 2
1392 2
1393 2
1394 2
1395 2
1396 1
1397 2
1398 2
1399 2
1400 2
1401 2
1402 2
1403 2
1404 1
1405 2
1406 1
1407 1
1408 1
1409 2
1410 2
1411 2
1412 2
1413 1
1414 1
1415 1
1416 2
1417 2
1418 2
1419 2
1420 2
1421 1
1422 2
1423 1
1424 2
1425 2
1426 2
1427 2
1428 2
1429 2
1430 1
1431 2
1432 1
1433 1
1434 1
1435 1
1436 2
1437 2
1438 1
1439 1
1440 2
1441 1
1442 1
1443 1
1444 2
1445 2
1446 1
1447 2
1448 2
1449 1
1450 2
1451 2
1452 1
1453 1
1454 2
1455 1
1456 2
1457 2
1458 2
1459 1
1460 1
1461 2
1462 2
1463 1
1464 1
1465 1
1466 2
1467 1
1468 2
1469 2
1470 2
1471 1
1472 1
1473 2
1474 1
1475 1
1476 1
1477 2
1478 1
1479 2
1480 2
1481 2
1482 1
1483 1
1484 1
1485 1
1486 1
1487 1
1488 2
1489 2
1490 2
1491 1
1492 2
1493 1
1494 2
1495 1
1496 1
1497 1
1498 2
1499 2
1500 1
1501 2
1502 1
1503 1
1504 2
1505 2
1506 1
1507 1
1508 1
1509 1
1510 1
1511 2
1512 1
1513 1
1514 1
1515 1
1516 2
1517 1
1518 1
1519 1
1520 1
1521 1
1522 2
1523 1
1524 2
1525 2
1526 1
1527 1
1528 2
1529 1
1530 1
1531 1
1532 2
1533 1
1534 2
1535 2
1536 2
1537 1
1538 2
1539 2
1540 2
1541 2
1542 2
1543 1
1544 2
1545 2
1546 1
1547 1
1548 2
1549 2
1550 2
1551 2
1552 2
1553 2
1554 1
1555 1
1556 2
1557 1
1558 1
1559 2
1560 1
1561 1
1562 1
1563 2
1564 2
1565 2
1566 2
1567 2
1568 2
1569 2
1570 2
1571 1
1572 2
1573 2
1574 1
1575 2
1576 1
1577 2
1578 2
1579 2
1580 1
1581 1
1582 2
1583 1
1584 2
1585 2
1586 1
1587 1
1588 1
1589 2
1590 2
1591 1
1592 2
1593 1
1594 2
1595 1
1596 1
1597 2
1598 1
1599 1
1600 1
1601 2
1602 2
1603 2
1604 2
1605 1
1606 1
1607 1
1608 2
1609 2
1610 1
1611 1
1612 1
1613 1
1614 2
1615 2
1616 1
1617 2
1618 2
1619 2
1620 2
1621 1
1622 2
1623 1
1624 1
1625 1
1626 2
1627 1
1628 2
1629 2
1630 1
1631 1
1632 2
1633 1
1634 1
1635 1
1636 1
1637 2
1638 1
1639 1
1640 2
1641 2
1642 1
1643 2
1644 1
1645 1
1646 2
1647 2
1648 1
1649 2
1650 2
1651 2
1652 1
1653 1
1654 2
1655 1
1656 1
1657 2
1658 1
1659 2
1660 2
1661 2
1662 1
1663 2
1664 2
1665 2
1666 2
1667 1
1668 1
1669 2
1670 2
1671 2
1672 2
1673 1
1674 1
1675 2
1676 1
1677 1
1678 1
1679 2
1680 2
1681 2
1682 1
1683 1
1684 1
1685 2
1686 1
1687 1
1688 1
1689 1
1690 1
1691 2
1692 1
1693 2
1694 1
1695 1
1696 1
1697 1
1698 2
1699 1
1700 1
1701 2
1702 1
1703 1
1704 2
1705 1
1706 1
1707 1
1708 1
1709 1
1710 2
1711 1
1712 1
1713 2
1714 2
1715 2
1716 1
1717 2
1718 1
1719 1
1720 1
1721 2
1722 1
1723 2
1724 1
1725 2
1726 1
1727 1
1728 1
1729 1
1730 1
1731 1
1732 1
1733 2
1734 1
1735 2
1736 1
1737 1
1738 1
1739 2
1740 2
1741 2
1742 1
1743 2
1744 1
1745 2
1746 1
1747 1
1748 1
1749 1
1750 1
1751 1
1752 1
1753 1
1754 2
1755 1
1756 2
1757 2
1758 2
1759 2
1760 1
1761 1
1762 1
1763 1
1764 2
1765 1
1766 1
1767 1
1768 1
1769 2
1770 2
1771 1
1772 1
1773 2
1774 2
1775 2
1776 1
1777 2
1778 1
1779 2
1780 2
1781 2
1782 1
1783 1
1784 2
1785 1
1786 1
1787 2
1788 2
1789 2
1790 2
1791 2
1792 1
1793 1
1794 1
1795 2
1796 2
1797 1
1798 2
1799 1
1800 1
1801 1
1802 1
1803 1
1804 2
1805 2
1806 2
1807 2
1808 2
1809 2
1810 2
1811 2
1812 1
1813 1
1814 2
1815 2
1816 1
1817 1
1818 2
1819 2
1820 1
1821 2
1822 2
1823 1
1824 2
1825 1
1826 2
1827 2
1828 2
1829 2
1830 1
1831 1
1832 2
1833 2
1834 1
1835 1
1836 2
1837 2
1838 1
1839 1
1840 1
1841 2
1842 2
1843 2
1844 2
1845 2
1846 1
1847 2
1848 2
1849 2
1850 2
1851 1
1852 2
1853 2
1854 1
1855 2
1856 2
1857 1
1858 2
1859 1
1860 2
1861 2
1862 1
1863 1
1864 2
1865 1
1866 1
1867 2
1868 2
1869 2
1870 1
1871 2
1872 1
1873 1
1874 2
1875 2
1876 1
1877 2
1878 2
1879 2
1880 1
1881 1
1882 1
1883 1
1884 1
1885 2
1886 1
1887 2
1888 1
1889 1
1890 2
1891 1
1892 1
1893 2
1894 2
1895 1
1896 1
1897 2
1898 2
1899 2
1900 1
1901 2
1902 1
1903 1
1904 2
1905 2
1906 1
1907 2
1908 1
1909 2
1910 2
1911 2
1912 1
1913 2
1914 2
1915 1
1916 1
1917 1
1918 2
1919 2
1920 1
1921 1
1922 1
1923 2
1924 2
1925 2
1926 2
1927 1
1928 2
1929 2
1930 1
1931 1
1932 2
1933 2
1934 2
1935 1
1936 2
1937 1
1938 1
1939 2
1940 2
1941 2
1942 1
1943 1
1944 1
1945 2
1946 2
1947 1
1948 1
1949 1
1950 1
1951 2
1952 2
1953 2
1954 2
1955 1
1956 1
1957 1
1958 2
1959 1
1960 1
1961 1
1962 2
1963 2
1964 1
1965 1
1966 1
1967 2
1968 1
1969 1
1970 2
1971 2
1972 1
1973 1
1974 1
1975 2
1976 2
1977 1
1978 1
1979 1
1980 2
1981 1
1982 1
1983 2
1984 2
1985 1
1986 2
1987 1
1988 2
1989 2
1990 2
1991 1
1992 1
1993 1
1994 2
1995 1
1996 2
1997 1
1998 1
1999 2
2000 1
2001 2
2002 1
2003 2
2004 1
2005 1
2006 2
2007 2
2008 1
2009 2
2010 2
2011 1
2012 1
2013 1
2014 2
2015 1
2016 1
2017 1
2018 1
2019 1
2020 2
2021 1
2022 1
2023 1
2024 1
2025 2
2026 2
2027 2
2028 1
2029 2
2030 2
2031 2
2032 1
2033 2
2034 1
2035 2
2036 1
2037 1
2038 1
2039 2
2040 1
2041 1
2042 2
2043 1
2044 1
2045 2
2046 1
2047 2
2048 2
2049 2
2050 2
2051 1
2052 1
2053 2
2054 1
2055 2
2056 1
2057 1
2058 2
2059 2
2060 1
2061 2
2062 1
2063 2
2064 1
2065 1
2066 2
2067 2
2068 2
2069 1
2070 2
2071 2
2072 2
2073 1
2074 2
2075 2
2076 1
2077 1
2078 1
2079 1
2080 2
2081 2
2082 1
2083 2
2084 1
2085 1
2086 1
2087 2
2088 2
2089 1
2090 2
2091 1
2092 2
2093 1
2094 2
2095 2
2096 1
2097 2
2098 1
2099 2
2100 2
2101 1
2102 2
2103 2
2104 2
2105 2
2106 1
2107 2
2108 1
2109 1
2110 1
2111 1
2112 2
2113 2
2114 2
2115 2
2116 1
2117 1
2118 2
2119 1
2120 1
2121 1
2122 2
2123 2
2124 2
2125 2
2126 2
2127 1
2128 2
2129 2
2130 1
2131 2
2132 2
2133 1
2134 1
2135 2
2136 2
2137 1
2138 1
2139 2
2140 1
2141 1
2142 2
2143 2
2144 2
2145 1
2146 2
2147 1
2148 1
2149 2
2150 2
2151 1
2152 2
2153 2
2154 2
2155 1
2156 1
2157 1
2158 1
2159 2
2160 1
2161 1
2162 1
2163 1
2164 1
2165 1
2166 1
2167 2
2168 1
2169 1
2170 2
2171 1
2172 1
2173 1
2174 1
2175 1
2176 1
2177 1
2178 2
2179 2
2180 2
2181 2
2182 2
2183 2
2184 1
2185 1
2186 2
2187 2
2188 1
2189 1
2190 2
2191 2
2192 1
2193 2
2194 2
2195 1
2196 2
2197 2
2198 2
2199 2
2200 1
2201 1
2202 2
2203 1
2204 2
2205 2
2206 1
2207 1
2208 2
2209 2
2210 2
2211 2
2212 2
2213 2
2214 1
2215 2
2216 1
2217 2
2218 1
2219 1
2220 2
2221 1
2222 1
2223 1
2224 2
2225 2
2226 1
2227 2
2228 1
2229 1
2230 2
2231 1
2232 1
2233 1
2234 2
2235 1
2236 2
2237 2
2238 1
2239 2
2240 1
2241 2
2242 2
2243 2
2244 1
2245 2
2246 1
2247 2
2248 2
2249 2
2250 1
2251 2
2252 2
2253 1
2254 2
2255 1
2256 2
2257 1
2258 2
2259 1
2260 1
2261 2
2262 1
2263 2
2264 1
2265 1
2266 2
2267 2
2268 2
2269 2
2270 1
2271 2
2272 2
2273 2
2274 2
2275 2
2276 2
2277 2
2278 2
2279 2
2280 1
2281 2
2282 2
2283 1
2284 1
2285 2
2286 1
2287 2
2288 2
2289 1
2290 2
2291 2
2292 1
2293 1
2294 2
2295 2
2296 1
2297 2
2298 2
2299 2
2300 1
2301 2
2302 1
2303 1
2304 2
2305 2
2306 2
2307 1
2308 1
2309 2
2310 2
2311 1
2312 1
2313 2
2314 2
2315 2
2316 2
2317 1
2318 2
2319 2
2320 1
2321 1
2322 2
2323 1
2324 2
2325 1
2326 2
2327 2
2328 2
2329 1
2330 2
2331 1
2332 1
2333 1
2334 1
2335 2
2336 2
2337 2
2338 1
2339 2
2340 2
2341 2
2342 2
2343 2
2344 1
2345 1
2346 1
2347 2
2348 2
2349 1
2350 2
2351 1
2352 1
2353 2
2354 1
2355 1
2356 1
2357 1
2358 2
2359 2
2360 2
2361 1
2362 2
2363 2
2364 2
2365 2
2366 2
2367 1
2368 1
2369 2
2370 1
2371 2
2372 2
2373 2
2374 1
2375 1
2376 2
2377 2
2378 1
2379 1
2380 2
2381 2
2382 2
2383 1
2384 1
2385 2
2386 2
2387 2
2388 1
2389 1
2390 1
2391 1
2392 2
2393 1
2394 2
2395 2
2396 1
2397 2
2398 1
2399 1
2400 1
2401 1
2402 1
2403 1
2404 2
2405 1
2406 2
2407 2
2408 1
2409 2
2410 1
2411 1
2412 1
2413 2
2414 1
2415 1
2416 2
2417 1
2418 1
2419 1
2420 1
2421 2
2422 1
2423 2
2424 1
2425 2
2426 1
2427 2
2428 2
2429 2
2430 2
2431 2
2432 1
2433 2
2434 2
2435 1
2436 2
2437 1
2438 2
2439 2
2440 1
2441 2
2442 1
2443 2
2444 1
2445 1
2446 2
2447 1
2448 2
2449 1
2450 2
2451 1
2452 2
2453 1
2454 1
2455 2
2456 2
2457 1
2458 1
2459 1
2460 1
2461 1
2462 2
2463 1
2464 1
2465 1
2466 2
2467 2
2468 2
2469 1
2470 2
2471 2
2472 1
2473 1
2474 2
2475 1
2476 1
2477 2
2478 1
2479 1
2480 1
2481 2
2482 1
2483 1
2484 1
2485 2
2486 1
2487 1
2488 2
2489 2
2490 2
2491 1
2492 1
2493 1
2494 1
2495 2
2496 2
2497 1
2498 2
2499 1
2500 2
2501 1
2502 2
2503 2
2504 2
2505 1
2506 1
2507 1
2508 1
2509 2
2510 2
2511 1
2512 2
2513 2
2514 1
2515 2
2516 1
2517 2
2518 1
2519 1
2520 1
2521 1
2522 1
2523 1
2524 2
2525 2
2526 2
2527 2
2528 2
2529 2
2530 1
2531 2
2532 2
2533 2
2534 1
2535 1
2536 1
2537 1
2538 2
2539 2
2540 2
2541 2
2542 1
2543 1
2544 2
2545 1
2546 2
2547 2
2548 2
2549 1
2550 2
2551 1
2552 2
2553 2
2554 2
2555 1
2556 1
2557 2
2558 2
2559 2
2560 1
2561 1
2562 1
2563 2
2564 2
2565 1
2566 1
2567 2
2568 1
2569 2
2570 1
2571 2
2572 2
2573 2
2574 1
2575 1
2576 2
2577 2
2578 1
2579 2
2580 1
2581 2
2582 1
2583 2
2584 2
2585 1
2586 2
2587 2
2588 1
2589 1
2590 1
2591 1
2592 2
2593 2
2594 2
2595 1
2596 2
2597 2
2598 2
2599 2
2600 1
2601 1
2602 2
2603 1
2604 1
2605 2
2606 1
2607 2
2608 2
2609 1
2610 1
2611 2
2612 1
2613 1
2614 2
2615 2
2616 1
2617 1
2618 2
2619 2
2620 1
2621 1
2622 1
2623 2
2624 1
2625 1
2626 2
2627 1
2628 1
2629 2
2630 2
2631 1
2632 2
2633 2
2634 1
2635 2
2636 2
2637 2
2638 2
2639 1
2640 1
2641 1
2642 1
2643 2
2644 1
2645 2
2646 1
2647 2
2648 2
2649 1
2650 2
2651 2
2652 1
2653 1
2654 1
2655 2
2656 1
2657 1
2658 2
2659 1
2660 1
2661 2
2662 2
2663 1
2664 2
2665 1
2666 2
2667 1
2668 2
2669 2
2670 1
2671 2
2672 1
2673 2
2674 1
2675 1
2676 2
2677 2
2678 2
2679 2
2680 2
2681 1
2682 2
2683 1
2684 2
2685 2
2686 1
2687 2
2688 1
2689 2
2690 2
2691 1
2692 2
2693 1
2694 2
2695 2
2696 2
2697 2
2698 2
2699 1
2700 1
2701 2
2702 2
2703 2
2704 1
2705 2
2706 2
2707 2
2708 1
2709 2
2710 2
2711 1
2712 1
2713 1
2714 1
2715 1
2716 2
2717 2
2718 2
2719 1
2720 2
2721 2
2722 2
2723 2
2724 1
2725 1
2726 1
2727 1
2728 1
2729 2
2730 2
2731 2
2732 2
2733 1
2734 2
2735 2
2736 1
2737 1
2738 2
2739 1
2740 1
2741 1
2742 1
2743 1
2744 2
2745 2
2746 2
2747 2
2748 1
2749 1
2750 2
2751 2
2752 1
2753 2
2754 2
2755 1
2756 1
2757 1
2758 2
2759 2
2760 2
2761 1
2762 2
2763 2
2764 1
2765 1
2766 2
2767 2
2768 1
2769 2
2770 1
2771 2
2772 1
2773 2
2774 2
2775 2
2776 1
2777 1
2778 2
2779 1
2780 2
2781 1
2782 1
2783 2
2784 2
2785 2
2786 2
2787 2
2788 2
2789 2
2790 1
2791 1
2792 2
2793 1
2794 2
2795 1
2796 2
2797 2
2798 1
2799 2
2800 2
2801 1
2802 1
2803 1
2804 1
2805 2
2806 2
2807 1
2808 2
2809 1
2810 2
2811 2
2812 2
2813 2
2814 1
2815 1
2816 2
2817 1
2818 2
2819 2
2820 1
2821 1
2822 2
2823 1
2824 1
2825 1
2826 2
2827 1
2828 1
2829 1
2830 2
2831 1
2832 2
2833 1
2834 1
2835 1
2836 1
2837 2
2838 1
2839 1
2840 1
2841 2
2842 1
2843 1
2844 2
2845 1
2846 2
2847 2
2848 2
2849 2
2850 2
2851 1
2852 2
2853 1
2854 1
2855 1
2856 2
2857 2
2858 2
2859 1
2860 2
2861 1
2862 1
2863 2
2864 2
2865 2
2866 1
2867 2
2868 2
2869 1
2870 2
2871 1
2872 2
2873 1
2874 2
2875 1
2876 2
2877 1
2878 1
2879 1
2880 2
2881 2
2882 1
2883 1
2884 2
2885 1
2886 1
2887 1
2888 1
2889 1
2890 1
2891 1
2892 2
2893 1
2894 2
2895 2
2896 2
2897 1
2898 1
2899 1
2900 2
2901 1
2902 2
2903 1
2904 2
2905 2
2906 1
2907 2
2908 2
2909 1
2910 2
2911 1
2912 2
2913 2
2914 1
2915 1
2916 2
2917 2
2918 1
2919 1
2920 2
2921 1
2922 1
2923 2
2924 2
2925 2
2926 1
2927 2
2928 2
2929 2
2930 1
2931 1
2932 2
2933 1
2934 2
2935 1
2936 1
2937 1
2938 1
2939 1
2940 1
2941 2
2942 1
2943 1
2944 1
2945 1
2946 2
2947 2
2948 2
2949 1
2950 1
2951 2
2952 2
2953 2
2954 2
2955 1
2956 2
2957 2
2958 1
2959 2
2960 1
2961 2
2962 1
2963 2
2964 2
2965 1
2966 1
2967 1
2968 2
2969 2
2970 2
2971 2
2972 2
2973 2
2974 1
2975 2
2976 1
2977 2
2978 1
2979 1
2980 2
2981 2
2982 2
2983 1
2984 2
2985 2
2986 2
2987 2
2988 1
2989 2
2990 2
2991 2
2992 2
2993 1
2994 1
2995 2
2996 2
2997 1
2998 1
2999 1
3000 1
3001 1
3002 2
3003 2
3004 2
3005 2
3006 1
3007 2
3008 1
3009 2
3010 1
3011 1
3012 2
3013 2
3014 2
3015 1
3016 2
3017 2
3018 1
3019 2
3020 2
3021 1
3022 2
3023 1
3024 2
3025 1
3026 2
3027 2
3028 1
3029 1
3030 1
3031 1
3032 1
3033 2
3034 1
3035 2
3036 1
3037 2
3038 2
3039 1
3040 1
3041 2
3042 1
3043 1
3044 1
3045 2
3046 1
3047 2
3048 1
3049 2
3050 2
3051 2
3052 2
3053 1
3054 2
3055 2
3056 1
3057 2
3058 1
3059 2
3060 2
3061 2
3062 1
3063 2
3064 2
3065 2
3066 2
3067 2
3068 1
3069 2
3070 2
3071 2
3072 1
3073 1
3074 1
3075 2
3076 1
3077 1
3078 2
3079 2
3080 2
3081 2
3082 1
3083 2
3084 1
3085 1
3086 2
3087 2
3088 1
3089 2
3090 2
3091 1
3092 2
3093 2
3094 1
3095 2
3096 1
3097 2
3098 2
3099 1
3100 2
3101 1
3102 2
3103 1
3104 2
3105 2
3106 2
3107 1
3108 2
3109 1
3110 1
3111 2
3112 2
3113 1
3114 1
3115 2
3116 1
3117 1
3118 2
3119 2
3120 2
3121 1
3122 2
3123 1
3124 1
3125 2
3126 1
3127 2
3128 1
3129 2
3130 1
3131 1
3132 1
3133 2
3134 2
3135 2
3136 1
3137 1
3138 2
3139 2
3140 1
3141 1
3142 1
3143 2
3144 2
3145 2
3146 2
3147 1
3148 1
3149 2
3150 1
3151 2
3152 1
3153 2
3154 2
3155 1
3156 2
3157 1
3158 1
3159 1
3160 1
3161 2
3162 1
3163 1
3164 2
3165 1
3166 1
3167 1
3168 2
3169 2
3170 2
3171 1
3172 2
3173 1
3174 2
3175 1
3176 2
3177 1
3178 2
3179 1
3180 1
3181 2
3182 2
3183 2
3184 1
3185 1
3186 2
3187 2
3188 2
3189 2
3190 2
3191 1
3192 2
3193 2
3194 1
3195 1
3196 2
3197 1
3198 1
3199 2
3200 1
3201 1
3202 2
3203 1
3204 2
3205 2
3206 2
3207 2
3208 2
3209 1
3210 1
3211 1
3212 2
3213 2
3214 2
3215 2
3216 1
3217 2
3218 2
3219 1
3220 2
3221 1
3222 1
3223 2
3224 2
3225 1
3226 2
3227 1
3228 1
3229 2
3230 2
3231 1
3232 2
3233 1
3234 2
3235 2
3236 1
3237 1
3238 1
3239 1
3240 1
3241 1
3242 1
3243 2
3244 1
3245 2
3246 1
3247 1
3248 1
3249 1
3250 1
3251 1
3252 1
3253 1
3254 1
3255 1
3256 1
3257 1
3258 2
3259 2
3260 1
3261 1
3262 2
3263 2
3264 2
3265 2
3266 2
3267 2
3268 2
3269 2
3270 1
3271 2
3272 2
3273 2
3274 2
3275 2
3276 1
3277 1
3278 2
3279 2
3280 1
3281 2
3282 2
3283 1
3284 2
3285 2
3286 2
3287 2
3288 1
3289 1
3290 1
3291 2
3292 1
3293 2
3294 1
3295 1
3296 1
3297 1
3298 1
3299 1
3300 2
3301 2
3302 1
3303 1
3304 2
3305 1
3306 2
3307 1
3308 2
3309 1
3310 1
3311 1
3312 2
3313 2
3314 1
3315 2
3316 2
3317 1
3318 1
3319 2
3320 2
3321 2
3322 2
3323 2
3324 2
3325 1
3326 2
3327 2
3328 2
3329 1
3330 2
3331 2
3332 1
3333 1
3334 1
3335 1
3336 1
3337 2
3338 1
3339 1
3340 2
3341 2
3342 2
3343 2
3344 1
3345 1
3346 1
3347 1
3348 2
3349 1
3350 2
3351 1
3352 2
3353 1
3354 1
3355 1
3356 2
3357 2
3358 2
3359 2
3360 1
3361 1
3362 1
3363 1
3364 2
3365 2
3366 1
3367 1
3368 2
3369 1
3370 1
3371 2
3372 2
3373 2
3374 1
3375 1
3376 2
3377 2
3378 2
3379 2
3380 2
3381 1
3382 2
3383 2
3384 2
3385 2
3386 2
3387 2
3388 1
3389 2
3390 2
3391 1
3392 2
3393 2
3394 2
3395 2
3396 2
3397 1
3398 1
3399 1
3400 2
3401 1
3402 2
3403 2
3404 1
3405 1
3406 1
3407 2
3408 2
3409 2
3410 2
3411 2
3412 1
3413 2
3414 1
3415 1
3416 1
3417 2
3418 2
3419 2
3420 1
3421 2
3422 2
3423 1
3424 1
3425 1
3426 1
3427 1
3428 1
3429 1
3430 2
3431 2
3432 1
3433 1
3434 2
3435 2
3436 2
3437 1
3438 1
3439 1
3440 1
3441 1
3442 1
3443 2
3444 1
3445 2
3446 2
3447 1
3448 1
3449 1
3450 1
3451 1
3452 2
3453 1
3454 2
3455 1
3456 1
3457 2
3458 2
3459 1
3460 2
3461 2
3462 2
3463 1
3464 2
3465 1
3466 1
3467 2
3468 2
3469 2
3470 2
3471 1
3472 2
3473 1
3474 1
3475 1
3476 1
3477 2
3478 2
3479 1
3480 2
3481 2
3482 2
3483 2
3484 2
3485 1
3486 2
3487 1
3488 2
3489 2
3490 1
3491 2
3492 1
3493 1
3494 1
3495 1
3496 2
3497 2
3498 2
3499 1
3500 2
3501 1
3502 2
3503 1
3504 2
3505 1
3506 1
3507 2
3508 2
3509 1
3510 2
3511 2
3512 1
3513 1
3514 2
3515 2
3516 2
3517 1
3518 2
3519 2
3520 1
3521 1
3522 2
3523 1
3524 1
3525 2
3526 2
3527 1
3528 1
3529 2
3530 2
3531 1
3532 2
3533 2
3534 2
3535 1
3536 2
3537 2
3538 2
3539 2
3540 2
3541 1
3542 1
3543 1
3544 2
3545 1
3546 2
3547 1
3548 2
3549 1
3550 2
3551 1
3552 2
3553 2
3554 1
3555 1
3556 1
3557 2
3558 1
3559 1
3560 1
3561 1
3562 2
3563 2
3564 2
3565 1
3566 1
3567 1
3568 2
3569 1
3570 1
3571 2
3572 2
3573 1
3574 2
3575 1
3576 2
3577 2
3578 1
3579 1
3580 2
3581 1
3582 1
3583 1
3584 2
3585 1
3586 2
3587 1
3588 1
3589 2
3590 1
3591 1
3592 2
3593 1
3594 2
3595 2
3596 1
3597 1
3598 1
3599 2
3600 2
3601 1
3602 2
3603 1
3604 2
3605 1
3606 1
3607 2
3608 1
3609 1
3610 1
3611 1
3612 1
3613 2
3614 1
3615 2
3616 1
3617 2
3618 1
3619 1
3620 2
3621 1
3622 1
3623 1
3624 1
3625 2
3626 2
3627 1
3628 1
3629 2
3630 2
3631 2
3632 2
3633 2
3634 2
3635 1
3636 2
3637 2
3638 1
3639 2
3640 2
3641 2
3642 2
3643 2
3644 1
3645 1
3646 1
3647 2
3648 2
3649 2
3650 1
3651 2
3652 2
3653 1
3654 1
3655 2
3656 2
3657 2
3658 1
3659 2
3660 2
3661 2
3662 1
3663 1
3664 2
3665 1
3666 2
3667 2
3668 1
3669 2
3670 1
3671 1
3672 2
3673 1
3674 1
3675 2
3676 2
3677 2
3678 1
3679 1
3680 2
3681 2
3682 2
3683 2
3684 2
3685 2
3686 1
3687 1
3688 2
3689 2
3690 2
3691 1
3692 1
3693 1
3694 2
3695 1
3696 1
3697 2
3698 2
3699 1
3700 2
3701 1
3702 2
3703 2
3704 2
3705 2
3706 2
3707 2
3708 1
3709 2
3710 2
3711 2
3712 2
3713 2
3714 2
3715 1
3716 1
3717 2
3718 1
3719 1
3720 1
3721 2
3722 1
3723 1
3724 1
3725 1
3726 1
3727 2
3728 2
3729 2
3730 1
3731 1
3732 1
3733 2
3734 1
3735 1
3736 1
3737 1
3738 2
3739 1
3740 1
3741 1
3742 1
3743 1
3744 1
3745 1
3746 2
3747 1
3748 2
3749 2
3750 1
3751 1
3752 2
3753 2
3754 1
3755 1
3756 2
3757 1
3758 2
3759 1
3760 1
3761 2
3762 2
3763 2
3764 2
3765 1
3766 2
3767 1
3768 1
3769 1
3770 1
3771 2
3772 1
3773 2
3774 2
3775 2
3776 1
3777 1
3778 1
3779 1
3780 1
3781 2
3782 1
3783 2
3784 1
3785 1
3786 2
3787 1
3788 1
3789 1
3790 2
3791 1
3792 1
3793 2
3794 2
3795 1
3796 1
3797 2
3798 1
3799 1
3800 1
3801 2
3802 2
3803 1
3804 1
3805 1
3806 2
3807 1
3808 1
3809 1
3810 1
3811 1
3812 2
3813 2
3814 1
3815 2
3816 1
3817 2
3818 1
3819 1
3820 2
3821 2
3822 1
3823 2
3824 2
3825 2
3826 1
3827 2
3828 2
3829 2
3830 1
3831 2
3832 1
3833 2
3834 1
3835 2
3836 1
3837 2
3838 2
3839 1
3840 1
3841 2
3842 1
3843 1
3844 2
3845 1
3846 1
3847 1
3848 2
3849 1
3850 2
3851 2
3852 2
3853 1
3854 1
3855 2
3856 2
3857 2
3858 2
3859 2
3860 2
3861 2
3862 2
3863 1
3864 2
3865 2
3866 1
3867 2
3868 2
3869 1
3870 2
3871 2
3872 1
3873 1
3874 1
3875 1
3876 1
3877 2
3878 1
3879 1
3880 1
3881 2
3882 2
3883 2
3884 1
3885 2
3886 2
3887 1
3888 1
3889 2
3890 2
3891 1
3892 1
3893 2
3894 1
3895 2
3896 2
3897 1
3898 1
3899 1
3900 1
3901 1
3902 2
3903 2
3904 2
3905 2
3906 2
3907 2
3908 2
3909 1
3910 1
3911 1
3912 1
3913 2
3914 1
3915 2
3916 1
3917 1
3918 1
3919 2
3920 1
3921 1
3922 2
3923 1
3924 2
3925 1
3926 1
3927 2
3928 2
3929 2
3930 1
3931 2
3932 1
3933 1
3934 2
3935 2
3936 2
3937 1
3938 2
3939 1
3940 2
3941 1
3942 2
3943 2
3944 2
3945 1
3946 1
3947 2
3948 1
3949 1
3950 2
3951 1
3952 2
3953 1
3954 1
3955 1
3956 1
3957 2
3958 1
3959 1
3960 2
3961 2
3962 2
3963 1
3964 2
3965 1
3966 1
3967 2
3968 1
3969 2
3970 1
3971 2
3972 2
3973 1
3974 1
3975 2
3976 1
3977 2
3978 1
3979 1
3980 2
3981 1
3982 1
3983 1
3984 1
3985 1
3986 1
3987 1
3988 1
3989 1
3990 1
3991 2
3992 2
3993 1
3994 2
3995 1
3996 1
3997 2
3998 1
3999 1
4000 1
4001 2
4002 1
4003 1
4004 1
4005 1
4006 1
4007 2
4008 1
4009 1
4010 2
4011 2
4012 2
4013 1
4014 1
4015 1
4016 1
4017 1
4018 2
4019 1
4020 1
4021 2
4022 1
4023 1
4024 1
4025 1
4026 1
4027 1
4028 1
4029 2
4030 2
4031 2
4032 1
4033 1
4034 2
4035 1
4036 1
4037 1
4038 1
4039 2
4040 2
4041 1
4042 2
4043 1
4044 1
4045 2
4046 1
4047 2
4048 2
4049 2
4050 1
4051 2
4052 2
4053 2
4054 2
4055 1
4056 2
4057 1
4058 2
4059 1
4060 2
4061 1
4062 1
4063 2
4064 1
4065 1
4066 1
4067 1
4068 2
4069 2
4070 1
4071 1
4072 2
4073 1
4074 1
4075 1
4076 1
4077 2
4078 1
4079 2
4080 2
4081 1
4082 1
4083 1
4084 2
4085 1
4086 2
4087 1
4088 1
4089 2
4090 1
4091 2
4092 2
4093 2
4094 1
4095 1
4096 2
4097 1
4098 1
4099 1
4100 1
4101 2
4102 1
4103 1
4104 1
4105 2
4106 2
4107 1
4108 2
4109 1
4110 2
4111 1
4112 2
4113 1
4114 2
4115 2
4116 1
4117 2
4118 2
4119 2
4120 2
4121 2
4122 1
4123 2
4124 1
4125 2
4126 2
4127 1
4128 1
4129 2
4130 1
4131 2
4132 1
4133 1
4134 2
4135 2
4136 2
4137 1
4138 1
4139 1
4140 2
4141 1
4142 1
4143 2
4144 1
4145 2
4146 2
4147 2
4148 2
4149 1
4150 2
4151 2
4152 2
4153 1
4154 1
4155 1
4156 1
4157 2
4158 1
4159 1
4160 1
4161 2
4162 2
4163 2
4164 1
4165 2
4166 2
4167 1
4168 2
4169 2
4170 1
4171 2
4172 1
4173 2
4174 1
4175 1
4176 1
4177 1
4178 1
4179 1
4180 1
4181 2
4182 1
4183 2
4184 1
4185 1
4186 2
4187 2
4188 1
4189 1
4190 1
4191 1
4192 2
4193 2
4194 2
4195 2
4196 1
4197 1
4198 2
4199 2
4200 2
4201 2
4202 2
4203 1
4204 1
4205 1
4206 2
4207 1
4208 2
4209 1
4210 2
4211 1
4212 2
4213 2
4214 2
4215 1
4216 1
4217 2
4218 2
4219 1
4220 1
4221 2
4222 2
4223 1
4224 1
4225 1
4226 1
4227 2
4228 2
4229 2
4230 2
4231 1
4232 2
4233 2
4234 2
4235 1
4236 2
4237 2
4238 1
4239 1
4240 2
4241 2
4242 1
4243 1
4244 2
4245 2
4246 2
4247 2
4248 2
4249 2
4250 1
4251 1
4252 2
4253 1
4254 2
4255 1
4256 2
4257 2
4258 2
4259 1
4260 1
4261 2
4262 2
4263 1
4264 1
4265 1
4266 1
4267 2
4268 1
4269 1
4270 2
4271 2
4272 1
4273 2
4274 1
4275 2
4276 1
4277 1
4278 2
4279 1
4280 1
4281 2
4282 2
4283 1
4284 2
4285 2
4286 2
4287 2
4288 2
4289 1
4290 2
4291 1
4292 1
4293 1
4294 2
4295 2
4296 1
4297 2
4298 1
4299 2
4300 2
4301 1
4302 1
4303 1
4304 2
4305 1
4306 2
4307 1
4308 1
4309 1
4310 2
4311 2
4312 2
4313 2
4314 1
4315 1
4316 1
4317 2
4318 1
4319 2
4320 1
4321 2
4322 2
4323 1
4324 2
4325 1
4326 2
4327 2
4328 1
4329 2
4330 2
4331 1
4332 2
4333 2
4334 1
4335 1
4336 1
4337 2
4338 2
4339 1
4340 1
4341 1
4342 2
4343 1
4344 2
4345 2
4346 1
4347 2
4348 2
4349 1
4350 2
4351 1
4352 2
4353 2
4354 1
4355 2
4356 2
4357 1
4358 1
4359 1
4360 1
4361 1
4362 1
4363 1
4364 2
4365 2
4366 1
4367 1
4368 2
4369 1
4370 2
4371 2
4372 2
4373 1
4374 1
4375 1
4376 1
4377 1
4378 1
4379 1
4380 1
4381 1
4382 1
4383 1
4384 1
4385 2
4386 2
4387 1
4388 2
4389 2
4390 2
4391 1
4392 1
4393 2
4394 1
4395 2
4396 2
4397 1
4398 2
4399 2
4400 1
4401 1
4402 1
4403 1
4404 2
4405 1
4406 2
4407 1
4408 1
4409 2
4410 1
4411 2
4412 1
4413 2
4414 2
4415 2
4416 1
4417 1
4418 2
4419 2
4420 1
4421 2
4422 1
4423 2
4424 1
4425 2
4426 1
4427 1
4428 2
4429 2
4430 2
4431 2
4432 1
4433 2
4434 2
4435 2
4436 2
4437 1
4438 2
4439 2
4440 2
4441 2
4442 2
4443 1
4444 1
4445 1
4446 1
4447 2
4448 2
4449 1
4450 2
4451 2
4452 1
4453 1
4454 1
4455 1
4456 2
4457 1
4458 1
4459 1
4460 1
4461 2
4462 2
4463 2
4464 1
4465 1
4466 1
4467 1
4468 2
4469 1
4470 1
4471 1
4472 1
4473 2
4474 2
4475 2
4476 1
4477 1
4478 2
4479 2
4480 1
4481 2
4482 2
4483 2
4484 1
4485 1
4486 1
4487 1
4488 1
4489 2
4490 2
4491 2
4492 1
4493 1
4494 2
4495 2
4496 1
4497 2
4498 1
4499 1
4500 1
4501 1
4502 1
4503 2
4504 1
4505 1
4506 1
4507 2
4508 2
4509 1
4510 1
4511 1
4512 1
4513 1
4514 2
4515 1
4516 2
4517 1
4518 2
4519 2
4520 1
4521 2
4522 1
4523 1
4524 2
4525 1
4526 2
4527 1
4528 1
4529 1
4530 2
4531 2
4532 1
4533 1
4534 2
4535 1
4536 2
4537 1
4538 2
4539 2
4540 2
4541 2
4542 2
4543 2
4544 2
4545 2
4546 2
4547 1
4548 1
4549 2
4550 2
4551 2
4552 1
4553 2
4554 2
4555 1
4556 1
4557 2
4558 2
4559 2
4560 2
4561 2
4562 1
4563 1
4564 1
4565 1
4566 2
4567 1
4568 1
4569 1
4570 2
4571 1
4572 1
4573 1
4574 1
4575 2
4576 1
4577 2
4578 2
4579 1
4580 2
4581 1
4582 2
4583 1
4584 2
4585 1
4586 2
4587 2
4588 1
4589 2
4590 1
4591 1
4592 2
4593 2
4594 2
4595 2
4596 1
4597 2
4598 1
4599 1
4600 2
4601 1
4602 1
4603 2
4604 1
4605 1
4606 2
4607 1
4608 2
4609 2
4610 2
4611 1
4612 2
4613 2
4614 2
4615 2
4616 1
4617 1
4618 1
4619 2
4620 2
4621 2
4622 1
4623 2
4624 1
4625 2
4626 1
4627 2
4628 1
4629 2
4630 2
4631 2
4632 2
4633 1
4634 1
4635 2
4636 1
4637 2
4638 2
4639 1
4640 1
4641 2
4642 1
4643 1
4644 2
4645 1
4646 1
4647 2
4648 2
4649 2
4650 2
4651 1
4652 2
4653 1
4654 2
4655 1
4656 2
4657 2
4658 1
4659 1
4660 1
4661 2
4662 1
4663 1
4664 1
4665 1
4666 1
4667 2
4668 2
4669 1
4670 2
4671 2
4672 2
4673 1
4674 2
4675 2
4676 1
4677 2
4678 1
4679 2
4680 1
4681 1
4682 2
4683 1
4684 1
4685 2
4686 2
4687 1
4688 2
4689 2
4690 1
4691 1
4692 1
4693 2
4694 1
4695 1
4696 2
4697 1
4698 1
4699 2
4700 1
4701 2
4702 2
4703 2
4704 1
4705 1
4706 2
4707 1
4708 1
4709 2
4710 1
4711 1
4712 2
4713 1
4714 1
4715 2
4716 2
4717 1
4718 2
4719 1
4720 2
4721 2
4722 2
4723 2
4724 2
4725 1
4726 2
4727 2
4728 2
4729 1
4730 1
4731 1
4732 2
4733 2
4734 2
4735 1
4736 2
4737 2
4738 2
4739 1
4740 1
4741 1
4742 1
4743 2
4744 1
4745 2
4746 2
4747 2
4748 2
4749 1
4750 2
4751 1
4752 1
4753 1
4754 1
4755 2
4756 2
4757 2
4758 2
4759 2
4760 2
4761 2
4762 2
4763 2
4764 1
4765 2
4766 1
4767 1
4768 2
4769 2
4770 2
4771 2
4772 1
4773 2
4774 2
4775 2
4776 2
4777 1
4778 1
4779 1
4780 1
4781 1
4782 1
4783 1
4784 2
4785 2
4786 2
4787 2
4788 2
4789 1
4790 2
4791 1
4792 1
4793 2
4794 2
4795 1
4796 2
4797 2
4798 2
4799 2
4800 2
4801 2
4802 2
4803 1
4804 2
4805 2
4806 2
4807 1
4808 1
4809 2
4810 2
4811 2
4812 1
4813 2
4814 1
4815 1
4816 1
4817 1
4818 1
4819 2
4820 2
4821 2
4822 2
4823 1
4824 2
4825 2
4826 2
4827 1
4828 2
4829 1
4830 2
4831 2
4832 2
4833 2
4834 1
4835 2
4836 2
4837 2
4838 2
4839 2
4840 2
4841 2
4842 1
4843 2
4844 2
4845 2
4846 2
4847 2
4848 1
4849 1
4850 1
4851 1
4852 2
4853 2
4854 2
4855 1
4856 1
4857 2
4858 1
4859 2
4860 1
4861 2
4862 2
4863 1
4864 1
4865 2
4866 2
4867 2
4868 2
4869 1
4870 2
4871 1
4872 2
4873 2
4874 2
4875 2
4876 2
4877 2
4878 1
4879 1
4880 1
4881 2
4882 1
4883 2
4884 2
4885 2
4886 1
4887 2
4888 1
4889 1
4890 1
4891 2
4892 2
4893 2
4894 1
4895 2
4896 1
4897 2
4898 1
4899 2
4900 1
4901 1
4902 2
4903 2
4904 2
4905 2
4906 2
4907 2
4908 1
4909 1
4910 2
4911 1
4912 1
4913 2
4914 2
4915 1
4916 1
4917 1
4918 2
4919 1
4920 1
4921 1
4922 1
4923 2
4924 1
4925 2
4926 2
4927 2
4928 1
4929 1
4930 1
4931 1
4932 2
4933 1
4934 2
4935 1
4936 2
4937 1
4938 1
4939 2
4940 2
4941 1
4942 2
4943 2
4944 2
4945 1
4946 2
4947 1
4948 1
4949 1
4950 2
4951 1
4952 2
4953 1
4954 2
4955 1
4956 1
4957 2
4958 1
4959 1
4960 1
4961 2
4962 2
4963 2
4964 2
4965 2
4966 2
4967 2
4968 1
4969 1
4970 2
4971 2
4972 2
4973 1
4974 1
4975 1
4976 2
4977 2
4978 2
4979 2
4980 2
4981 2
4982 2
4983 1
4984 2
4985 1
4986 2
4987 1
4988 2
4989 1
4990 1
4991 1
4992 1
4993 2
4994 2
4995 1
4996 1
4997 1
4998 1
4999 1
5000 2
